NAME: tsp5_29
COMMENT: 5-tsp problem (Padberg/Rinaldi)
TYPE: TSP
DIMENSION: 5
EDGE_WEIGHT_TYPE : EUC_2D
NODE_COORD_SECTION
1.00 6.65 23.66
2.00 27.25 26.40
3.00 0.65 38.58
4.00 16.19 21.92
5.00 20.81 8.57
